words_hard_train/4030.qaiger
aag 219 24 0 1 195
2
4
8
12
20
22
30
34
42
56
76
84
104
154
162
206
214
246
262
270
324
332
382
384
438
6 3 5
10 6 9
14 11 12
16 10 13
18 15 17
24 21 23
26 20 22
28 25 27
32 28 30
36 22 34
38 23 35
40 37 39
44 40 42
46 41 43
48 45 47
50 24 48
52 25 49
54 51 53
58 54 57
60 55 56
62 59 61
64 32 62
66 65 61
68 27 45
70 68 47
72 71 53
74 69 47
78 39 76
80 38 77
82 79 81
86 83 85
88 82 84
90 87 89
92 75 91
94 74 90
96 93 95
98 73 96
100 72 97
102 99 101
106 103 105
108 102 104
110 107 109
112 66 111
114 67 110
116 113 115
118 7 8
120 119 11
122 65 7
124 2 4
126 33 63
128 125 127
130 33 62
132 131 4
134 29 31
136 133 135
138 129 137
140 122 139
142 121 141
144 116 143
146 140 9
148 145 147
150 115 109
152 95 89
156 81 154
158 80 155
160 157 159
164 161 163
166 160 162
168 165 167
170 152 169
172 153 168
174 171 173
176 101 174
178 100 175
180 177 179
182 181 105
184 180 104
186 183 185
188 150 187
190 151 186
192 189 191
194 148 193
196 18 195
198 149 192
200 197 199
202 191 185
204 173 167
208 159 206
210 158 207
212 209 211
216 213 215
218 212 214
220 217 219
222 204 221
224 205 220
226 223 225
228 179 226
230 178 227
232 229 231
234 233 105
236 232 104
238 235 237
240 202 239
242 203 238
244 241 243
248 17 246
250 16 247
252 249 251
254 245 253
256 201 255
258 243 237
260 225 219
264 211 262
266 210 263
268 265 267
272 269 271
274 268 270
276 273 275
278 260 277
280 261 276
282 279 281
284 231 282
286 230 283
288 285 287
290 289 105
292 288 104
294 291 293
296 258 295
298 259 294
300 297 299
302 251 30
304 250 31
306 303 305
308 300 306
310 257 309
312 244 252
314 310 313
316 301 307
318 315 317
320 299 293
322 281 275
326 267 324
328 266 325
330 327 329
334 331 333
336 330 332
338 335 337
340 322 339
342 323 338
344 341 343
346 345 286
348 344 287
350 347 349
352 351 105
354 350 104
356 353 355
358 320 357
360 321 356
362 359 361
364 305 56
366 304 57
368 365 367
370 363 369
372 318 371
374 372 366
376 347 105
378 346 104
380 377 379
386 382 384
388 383 385
390 387 389
392 390 329
394 391 328
396 393 395
398 343 337
400 397 398
402 396 399
404 401 403
406 380 405
408 381 404
410 407 409
412 361 355
414 410 412
416 411 413
418 415 417
420 418 104
422 374 421
424 419 105
426 425 375
428 421 367
430 362 365
432 431 373
434 428 432
436 426 435
438 423 437
i0 2 y1[0]
i1 2 y1[1]
i2 2 y1[2]
i3 2 y1[3]
i4 1 x2[0]
i5 2 y2[0]
i6 2 y1[5]
i7 2 y2[1]
i8 1 x2[1]
i9 2 y1[6]
i10 2 y2[2]
i11 1 x2[2]
i12 2 y1[7]
i13 2 y2[3]
i14 1 x2[3]
i15 2 y2[4]
i16 1 x2[4]
i17 2 y1[4]
i18 2 y2[5]
i19 1 x2[5]
i20 2 y2[6]
i21 1 x2[6]
i22 1 x2[7]
i23 2 y2[7]
o0 bv[0]
c
simplified
  >
    2 y1
    subtract
      >> 5
        2 y1
      subtract
        1 x2
        2 y2
