words_hard_train/4030.qaiger.qdimacs
p cnf 219 586
a 166 135 10 107 42 81 21 191 0
e 1 2 3 4 5 6 7 8 9 11 12 13 14 15 16 17 18 19 20 22 23 24 25 26 27 28 29 30 31 32 33 34 35 36 37 38 39 40 41 43 44 45 46 47 48 49 50 51 52 53 54 55 56 57 58 59 60 61 62 63 64 65 66 67 68 69 70 71 72 73 74 75 76 77 78 79 80 82 83 84 85 86 87 88 89 90 91 92 93 94 95 96 97 98 99 100 101 102 103 104 105 106 108 109 110 111 112 113 114 115 116 117 118 119 120 121 122 123 124 125 126 127 128 129 130 131 132 133 134 136 137 138 139 140 141 142 143 144 145 146 147 148 149 150 151 152 153 154 155 156 157 158 159 160 161 162 163 164 165 167 168 169 170 171 172 173 174 175 176 177 178 179 180 181 182 183 184 185 186 187 188 189 190 192 193 194 195 196 197 198 199 200 201 202 203 204 205 206 207 208 209 210 211 212 213 214 215 216 217 218 219 0
1 2 3 0
-1 -3 0
-2 -3 0
-3 4 5 0
3 -5 0
-4 -5 0
5 -6 7 0
-5 -7 0
6 -7 0
-5 6 8 0
5 -8 0
-6 -8 0
7 8 9 0
-7 -9 0
-8 -9 0
10 11 12 0
-10 -12 0
-11 -12 0
-10 -11 13 0
10 -13 0
11 -13 0
12 13 14 0
-12 -14 0
-13 -14 0
-14 -15 16 0
14 -16 0
15 -16 0
-11 -17 18 0
11 -18 0
17 -18 0
11 17 19 0
-11 -19 0
-17 -19 0
18 19 20 0
-18 -20 0
-19 -20 0
-20 -21 22 0
20 -22 0
21 -22 0
20 21 23 0
-20 -23 0
-21 -23 0
22 23 24 0
-22 -24 0
-23 -24 0
-12 -24 25 0
12 -25 0
24 -25 0
12 24 26 0
-12 -26 0
-24 -26 0
25 26 27 0
-25 -27 0
-26 -27 0
-27 28 29 0
27 -29 0
-28 -29 0
27 -28 30 0
-27 -30 0
28 -30 0
29 30 31 0
-29 -31 0
-30 -31 0
-16 -31 32 0
16 -32 0
31 -32 0
32 30 33 0
-32 -33 0
-30 -33 0
13 22 34 0
-13 -34 0
-22 -34 0
-34 23 35 0
34 -35 0
-23 -35 0
35 26 36 0
-35 -36 0
-26 -36 0
34 23 37 0
-34 -37 0
-23 -37 0
19 -38 39 0
-19 -39 0
38 -39 0
-19 38 40 0
19 -40 0
-38 -40 0
39 40 41 0
-39 -41 0
-40 -41 0
41 42 43 0
-41 -43 0
-42 -43 0
-41 -42 44 0
41 -44 0
42 -44 0
43 44 45 0
-43 -45 0
-44 -45 0
37 45 46 0
-37 -46 0
-45 -46 0
-37 -45 47 0
37 -47 0
45 -47 0
46 47 48 0
-46 -48 0
-47 -48 0
36 -48 49 0
-36 -49 0
48 -49 0
-36 48 50 0
36 -50 0
-48 -50 0
49 50 51 0
-49 -51 0
-50 -51 0
51 52 53 0
-51 -53 0
-52 -53 0
-51 -52 54 0
51 -54 0
52 -54 0
53 54 55 0
-53 -55 0
-54 -55 0
-33 55 56 0
33 -56 0
-55 -56 0
33 -55 57 0
-33 -57 0
55 -57 0
56 57 58 0
-56 -58 0
-57 -58 0
3 -4 59 0
-3 -59 0
4 -59 0
59 5 60 0
-59 -60 0
-5 -60 0
32 3 61 0
-32 -61 0
-3 -61 0
-1 -2 62 0
1 -62 0
2 -62 0
16 31 63 0
-16 -63 0
-31 -63 0
62 63 64 0
-62 -64 0
-63 -64 0
16 -31 65 0
-16 -65 0
31 -65 0
65 -2 66 0
-65 -66 0
2 -66 0
14 15 67 0
-14 -67 0
-15 -67 0
66 67 68 0
-66 -68 0
-67 -68 0
64 68 69 0
-64 -69 0
-68 -69 0
-61 69 70 0
61 -70 0
-69 -70 0
60 70 71 0
-60 -71 0
-70 -71 0
-58 71 72 0
58 -72 0
-71 -72 0
-70 4 73 0
70 -73 0
-4 -73 0
72 73 74 0
-72 -74 0
-73 -74 0
57 54 75 0
-57 -75 0
-54 -75 0
47 44 76 0
-47 -76 0
-44 -76 0
40 -77 78 0
-40 -78 0
77 -78 0
-40 77 79 0
40 -79 0
-77 -79 0
78 79 80 0
-78 -80 0
-79 -80 0
80 81 82 0
-80 -82 0
-81 -82 0
-80 -81 83 0
80 -83 0
81 -83 0
82 83 84 0
-82 -84 0
-83 -84 0
-76 84 85 0
76 -85 0
-84 -85 0
76 -84 86 0
-76 -86 0
84 -86 0
85 86 87 0
-85 -87 0
-86 -87 0
50 -87 88 0
-50 -88 0
87 -88 0
-50 87 89 0
50 -89 0
-87 -89 0
88 89 90 0
-88 -90 0
-89 -90 0
90 52 91 0
-90 -91 0
-52 -91 0
-90 -52 92 0
90 -92 0
52 -92 0
91 92 93 0
-91 -93 0
-92 -93 0
-75 93 94 0
75 -94 0
-93 -94 0
75 -93 95 0
-75 -95 0
93 -95 0
94 95 96 0
-94 -96 0
-95 -96 0
-74 96 97 0
74 -97 0
-96 -97 0
-9 97 98 0
9 -98 0
-97 -98 0
74 -96 99 0
-74 -99 0
96 -99 0
98 99 100 0
-98 -100 0
-99 -100 0
95 92 101 0
-95 -101 0
-92 -101 0
86 83 102 0
-86 -102 0
-83 -102 0
79 -103 104 0
-79 -104 0
103 -104 0
-79 103 105 0
79 -105 0
-103 -105 0
104 105 106 0
-104 -106 0
-105 -106 0
106 107 108 0
-106 -108 0
-107 -108 0
-106 -107 109 0
106 -109 0
107 -109 0
108 109 110 0
-108 -110 0
-109 -110 0
-102 110 111 0
102 -111 0
-110 -111 0
102 -110 112 0
-102 -112 0
110 -112 0
111 112 113 0
-111 -113 0
-112 -113 0
89 -113 114 0
-89 -114 0
113 -114 0
-89 113 115 0
89 -115 0
-113 -115 0
114 115 116 0
-114 -116 0
-115 -116 0
116 52 117 0
-116 -117 0
-52 -117 0
-116 -52 118 0
116 -118 0
52 -118 0
117 118 119 0
-117 -119 0
-118 -119 0
-101 119 120 0
101 -120 0
-119 -120 0
101 -119 121 0
-101 -121 0
119 -121 0
120 121 122 0
-120 -122 0
-121 -122 0
8 -123 124 0
-8 -124 0
123 -124 0
-8 123 125 0
8 -125 0
-123 -125 0
124 125 126 0
-124 -126 0
-125 -126 0
122 126 127 0
-122 -127 0
-126 -127 0
100 127 128 0
-100 -128 0
-127 -128 0
121 118 129 0
-121 -129 0
-118 -129 0
112 109 130 0
-112 -130 0
-109 -130 0
105 -131 132 0
-105 -132 0
131 -132 0
-105 131 133 0
105 -133 0
-131 -133 0
132 133 134 0
-132 -134 0
-133 -134 0
134 135 136 0
-134 -136 0
-135 -136 0
-134 -135 137 0
134 -137 0
135 -137 0
136 137 138 0
-136 -138 0
-137 -138 0
-130 138 139 0
130 -139 0
-138 -139 0
130 -138 140 0
-130 -140 0
138 -140 0
139 140 141 0
-139 -141 0
-140 -141 0
115 -141 142 0
-115 -142 0
141 -142 0
-115 141 143 0
115 -143 0
-141 -143 0
142 143 144 0
-142 -144 0
-143 -144 0
144 52 145 0
-144 -145 0
-52 -145 0
-144 -52 146 0
144 -146 0
52 -146 0
145 146 147 0
-145 -147 0
-146 -147 0
-129 147 148 0
129 -148 0
-147 -148 0
129 -147 149 0
-129 -149 0
147 -149 0
148 149 150 0
-148 -150 0
-149 -150 0
125 -15 151 0
-125 -151 0
15 -151 0
-125 15 152 0
125 -152 0
-15 -152 0
151 152 153 0
-151 -153 0
-152 -153 0
-150 -153 154 0
150 -154 0
153 -154 0
128 154 155 0
-128 -155 0
-154 -155 0
-122 -126 156 0
122 -156 0
126 -156 0
-155 156 157 0
155 -157 0
-156 -157 0
150 153 158 0
-150 -158 0
-153 -158 0
157 158 159 0
-157 -159 0
-158 -159 0
149 146 160 0
-149 -160 0
-146 -160 0
140 137 161 0
-140 -161 0
-137 -161 0
133 -162 163 0
-133 -163 0
162 -163 0
-133 162 164 0
133 -164 0
-162 -164 0
163 164 165 0
-163 -165 0
-164 -165 0
165 166 167 0
-165 -167 0
-166 -167 0
-165 -166 168 0
165 -168 0
166 -168 0
167 168 169 0
-167 -169 0
-168 -169 0
-161 169 170 0
161 -170 0
-169 -170 0
161 -169 171 0
-161 -171 0
169 -171 0
170 171 172 0
-170 -172 0
-171 -172 0
172 -143 173 0
-172 -173 0
143 -173 0
-172 143 174 0
172 -174 0
-143 -174 0
173 174 175 0
-173 -175 0
-174 -175 0
175 52 176 0
-175 -176 0
-52 -176 0
-175 -52 177 0
175 -177 0
52 -177 0
176 177 178 0
-176 -178 0
-177 -178 0
-160 178 179 0
160 -179 0
-178 -179 0
160 -178 180 0
-160 -180 0
178 -180 0
179 180 181 0
-179 -181 0
-180 -181 0
152 -28 182 0
-152 -182 0
28 -182 0
-152 28 183 0
152 -183 0
-28 -183 0
182 183 184 0
-182 -184 0
-183 -184 0
181 184 185 0
-181 -185 0
-184 -185 0
-159 185 186 0
159 -186 0
-185 -186 0
-186 -183 187 0
186 -187 0
183 -187 0
173 52 188 0
-173 -188 0
-52 -188 0
-173 -52 189 0
173 -189 0
52 -189 0
188 189 190 0
-188 -190 0
-189 -190 0
-191 -192 193 0
191 -193 0
192 -193 0
191 192 194 0
-191 -194 0
-192 -194 0
193 194 195 0
-193 -195 0
-194 -195 0
-195 164 196 0
195 -196 0
-164 -196 0
195 -164 197 0
-195 -197 0
164 -197 0
196 197 198 0
-196 -198 0
-197 -198 0
171 168 199 0
-171 -199 0
-168 -199 0
198 -199 200 0
-198 -200 0
199 -200 0
-198 199 201 0
198 -201 0
-199 -201 0
200 201 202 0
-200 -202 0
-201 -202 0
-190 202 203 0
190 -203 0
-202 -203 0
190 -202 204 0
-190 -204 0
202 -204 0
203 204 205 0
-203 -205 0
-204 -205 0
180 177 206 0
-180 -206 0
-177 -206 0
-205 -206 207 0
205 -207 0
206 -207 0
205 206 208 0
-205 -208 0
-206 -208 0
207 208 209 0
-207 -209 0
-208 -209 0
-209 -52 210 0
209 -210 0
52 -210 0
-187 210 211 0
187 -211 0
-210 -211 0
209 52 212 0
-209 -212 0
-52 -212 0
212 187 213 0
-212 -213 0
-187 -213 0
210 183 214 0
-210 -214 0
-183 -214 0
-181 182 215 0
181 -215 0
-182 -215 0
215 186 216 0
-215 -216 0
-186 -216 0
-214 -216 217 0
214 -217 0
216 -217 0
-213 217 218 0
213 -218 0
-217 -218 0
211 218 219 0
-211 -219 0
-218 -219 0
219 0
